1000
400 400
1 320 808
2 320 527
3 320 738
4 319 172
5 319 300
6 318 713
7 318 668
8 318 737
9 317 836
10 316 689
11 316 609
12 315 107
13 315 998
14 315 629
15 315 630
16 314 678
17 314 303
18 313 99
19 313 196
20 313 917
21 313 981
22 312 256
23 312 471
24 311 430
25 311 170
26 311 164
27 311 599
28 311 475
29 311 298
30 311 305
31 311 642
32 310 327
33 310 869
34 310 152
35 309 910
36 308 258
37 308 323
38 307 483
39 306 67
40 306 892
41 306 304
42 306 425
43 305 393
44 304 84
45 304 244
46 304 36
47 304 395
48 303 993
49 303 965
50 303 784
51 303 721
52 303 583
53 302 978
54 302 554
55 302 287
56 301 160
57 301 40
58 301 559
59 301 661
60 301 948
61 300 468
62 300 122
63 300 312
64 299 323
65 298 893
66 298 944
67 298 59
68 298 966
69 298 909
70 298 758
71 298 654
72 298 735
73 298 179
74 297 273
75 297 330
76 297 120
77 296 463
78 296 585
79 296 204
80 296 945
81 295 978
82 295 465
83 295 304
84 295 551
85 295 575
86 294 40
87 294 408
88 294 516
89 294 33
90 293 785
91 293 715
92 293 586
93 292 541
94 292 466
95 292 516
96 292 303
97 292 977
98 292 132
99 291 221
100 291 832
101 291 980
102 290 784
103 289 453
104 289 640
105 289 491
106 288 443
107 288 318
108 288 255
109 288 210
110 288 110
111 288 76
112 287 880
113 287 493
114 285 80
115 285 926
116 285 184
117 283 311
118 283 436
119 283 207
120 282 579
121 282 340
122 282 496
123 282 411
124 282 130
125 281 455
126 281 801
127 281 287
128 281 900
129 280 941
130 280 413
131 280 498
132 280 99
133 279 357
134 279 973
135 279 225
136 279 245
137 278 979
138 278 387
139 278 743
140 278 104
141 278 682
142 278 539
143 278 449
144 277 837
145 277 965
146 277 664
147 277 966
148 277 32
149 277 385
150 277 860
151 276 231
152 276 103
153 275 7
154 275 597
155 275 394
156 275 506
157 274 812
158 274 580
159 274 386
160 274 183
161 273 121
162 273 381
163 273 822
164 272 409
165 272 954
166 272 11
167 272 734
168 272 645
169 272 95
170 271 496
171 271 107
172 271 169
173 271 940
174 271 302
175 270 642
176 270 332
177 270 115
178 270 510
179 269 736
180 269 418
181 269 537
182 269 769
183 268 492
184 268 442
185 268 535
186 268 197
187 268 28
188 267 983
189 267 347
190 267 218
191 267 609
192 267 827
193 266 570
194 266 928
195 266 376
196 266 670
197 266 474
198 265 795
199 265 974
200 265 356
201 265 728
202 265 963
203 264 337
204 264 160
205 264 259
206 264 29
207 264 484
208 263 46
209 263 531
210 263 769
211 262 3
212 262 397
213 262 500
214 262 596
215 262 730
216 261 74
217 261 10
218 261 112
219 261 380
220 261 76
221 261 754
222 261 26
223 260 165
224 260 227
225 260 353
226 260 982
227 259 60
228 257 39
229 257 962
230 256 267
231 256 740
232 256 264
233 255 484
234 255 156
235 255 613
236 255 872
237 254 945
238 254 708
239 254 399
240 254 142
241 254 19
242 254 849
243 253 732
244 253 841
245 253 97
246 253 676
247 253 566
248 253 386
249 252 817
250 252 944
251 252 471
252 252 115
253 252 366
254 252 753
255 251 77
256 251 763
257 251 527
258 251 627
259 250 450
260 250 713
261 250 335
262 250 640
263 249 442
264 249 204
265 249 610
266 249 74
267 249 22
268 248 989
269 248 818
270 248 234
271 248 212
272 246 516
273 246 328
274 246 94
275 245 631
276 244 237
277 243 796
278 243 164
279 243 530
280 242 435
281 242 646
282 241 813
283 241 216
284 241 12
285 240 952
286 240 191
287 240 631
288 240 343
289 239 683
290 238 872
291 238 28
292 238 529
293 238 554
294 238 621
295 238 548
296 237 91
297 237 736
298 237 728
299 237 977
300 237 39
301 237 162
302 237 989
303 236 28
304 236 124
305 236 352
306 236 446
307 236 270
308 236 962
309 236 519
310 235 813
311 235 593
312 235 327
313 235 210
314 235 619
315 235 822
316 233 686
317 232 886
318 231 704
319 231 768
320 230 611
321 230 168
322 230 631
323 230 491
324 229 245
325 229 991
326 229 207
327 228 573
328 228 282
329 227 173
330 227 435
331 227 989
332 227 767
333 227 408
334 226 487
335 226 836
336 226 658
337 225 109
338 224 302
339 224 244
340 224 554
341 223 751
342 223 649
343 222 715
344 221 627
345 221 78
346 221 585
347 221 609
348 221 931
349 220 686
350 220 173
351 220 367
352 220 3
353 220 413
354 219 654
355 219 395
356 219 437
357 218 995
358 218 172
359 218 901
360 218 915
361 218 883
362 218 927
363 218 855
364 218 889
365 218 986
366 218 398
367 217 947
368 217 550
369 217 888
370 217 33
371 217 139
372 217 161
373 216 535
374 216 846
375 216 636
376 215 80
377 214 712
378 214 535
379 214 328
380 213 558
381 213 75
382 213 832
383 213 656
384 212 808
385 212 132
386 212 113
387 212 60
388 212 858
389 212 628
390 211 681
391 211 240
392 211 250
393 211 329
394 211 893
395 211 303
396 211 111
397 210 912
398 210 913
399 209 102
400 209 59
401 209 48
402 209 746
403 208 159
404 208 739
405 208 232
406 208 71
407 206 588
408 206 358
409 206 26
410 206 380
411 205 634
412 205 10
413 205 703
414 205 809
415 205 327
416 205 887
417 205 771
418 204 821
419 204 619
420 204 435
421 204 61
422 203 85
423 203 553
424 203 271
425 202 941
426 202 370
427 202 943
428 202 82
429 202 297
430 202 890
431 202 9
432 201 420
433 201 155
434 201 288
435 200 649
436 200 197
437 200 418
438 200 154
439 200 861
440 199 861
441 199 331
442 198 916
443 198 536
444 197 604
445 197 880
446 197 969
447 196 307
448 196 814
449 196 198
450 195 577
451 195 143
452 195 538
453 194 784
454 193 456
455 193 131
456 192 866
457 192 655
458 192 539
459 192 912
460 192 293
461 191 50
462 191 77
463 190 799
464 190 464
465 190 394
466 190 743
467 190 941
468 190 19
469 190 858
470 190 74
471 190 425
472 190 751
473 190 787
474 190 757
475 189 180
476 189 119
477 189 718
478 188 249
479 187 238
480 187 726
481 186 559
482 186 926
483 186 686
484 186 380
485 186 678
486 185 397
487 185 980
488 185 904
489 185 634
490 185 916
491 185 182
492 185 292
493 184 586
494 184 134
495 184 603
496 183 126
497 183 584
498 183 572
499 183 847
500 182 168
501 182 828
502 182 585
503 182 691
504 182 835
505 182 278
506 181 393
507 181 854
508 181 876
509 181 886
510 181 178
511 181 469
512 180 505
513 180 707
514 179 254
515 178 359
516 178 406
517 178 497
518 178 326
519 177 370
520 176 726
521 175 109
522 175 282
523 175 60
524 175 56
525 175 686
526 175 212
527 175 634
528 174 605
529 174 147
530 174 253
531 174 893
532 173 464
533 173 625
534 173 810
535 172 527
536 172 26
537 172 930
538 172 601
539 172 122
540 172 416
541 171 761
542 171 118
543 171 535
544 171 75
545 170 498
546 170 208
547 170 699
548 169 296
549 169 674
550 169 993
551 169 657
552 169 643
553 168 887
554 168 920
555 168 318
556 167 682
557 167 131
558 167 287
559 167 914
560 167 476
561 165 581
562 165 908
563 165 603
564 165 326
565 164 86
566 164 785
567 164 517
568 164 681
569 163 339
570 162 408
571 162 589
572 161 881
573 161 922
574 161 373
575 160 902
576 160 911
577 160 597
578 160 290
579 159 798
580 159 308
581 159 394
582 159 292
583 159 295
584 158 700
585 158 679
586 158 811
587 158 522
588 157 702
589 157 561
590 156 256
591 156 131
592 156 646
593 155 669
594 155 32
595 155 818
596 155 370
597 154 290
598 154 992
599 154 502
600 153 410
601 153 177
602 152 433
603 152 155
604 151 603
605 151 304
606 151 725
607 151 729
608 151 585
609 151 822
610 151 323
611 151 641
612 151 711
613 150 595
614 150 150
615 150 463
616 149 414
617 149 714
618 149 640
619 149 9
620 149 938
621 149 594
622 149 613
623 148 324
624 148 969
625 147 570
626 147 14
627 147 621
628 147 94
629 146 575
630 146 579
631 145 435
632 145 224
633 144 525
634 144 275
635 144 682
636 143 118
637 143 561
638 143 805
639 143 165
640 141 20
641 141 594
642 141 493
643 141 191
644 141 116
645 141 70
646 140 544
647 139 725
648 139 256
649 139 53
650 139 132
651 138 363
652 138 557
653 138 643
654 138 413
655 138 822
656 137 42
657 137 973
658 136 859
659 136 212
660 136 763
661 136 311
662 136 651
663 135 745
664 135 26
665 135 934
666 135 811
667 134 439
668 134 623
669 134 598
670 133 361
671 132 242
672 132 953
673 132 147
674 132 805
675 132 568
676 132 249
677 132 200
678 132 103
679 132 50
680 131 199
681 131 849
682 131 807
683 131 469
684 130 30
685 130 684
686 130 355
687 130 209
688 130 789
689 130 564
690 130 241
691 129 506
692 129 279
693 128 481
694 128 330
695 128 291
696 128 867
697 128 734
698 127 944
699 127 168
700 127 767
701 127 354
702 127 587
703 126 47
704 126 976
705 126 760
706 125 103
707 125 769
708 125 590
709 125 448
710 125 706
711 125 888
712 124 913
713 124 335
714 124 808
715 124 102
716 123 575
717 123 188
718 123 682
719 122 247
720 122 429
721 122 441
722 121 485
723 121 688
724 121 532
725 121 403
726 121 186
727 121 252
728 120 832
729 120 395
730 120 561
731 119 872
732 119 5
733 119 203
734 119 909
735 119 973
736 118 806
737 118 282
738 118 401
739 118 886
740 118 196
741 117 895
742 117 917
743 117 548
744 117 217
745 117 270
746 117 367
747 115 142
748 115 27
749 115 130
750 115 891
751 114 631
752 114 625
753 114 370
754 114 714
755 113 623
756 113 565
757 113 99
758 113 87
759 113 471
760 113 487
761 112 204
762 112 954
763 111 783
764 111 676
765 111 893
766 110 294
767 110 267
768 110 307
769 110 850
770 109 858
771 109 166
772 109 56
773 109 467
774 108 877
775 108 992
776 107 973
777 107 341
778 107 823
779 107 876
780 106 187
781 106 926
782 106 108
783 106 494
784 106 329
785 106 94
786 106 741
787 105 179
788 105 777
789 105 706
790 105 903
791 105 161
792 105 234
793 104 341
794 104 432
795 103 309
796 103 651
797 102 191
798 102 766
799 101 886
800 101 268
801 101 878
802 101 25
803 101 187
804 101 352
805 101 314
806 100 938
807 100 345
808 100 493
809 100 628
810 100 760
811 100 756
812 99 686
813 99 88
814 99 848
815 99 179
816 99 42
817 99 540
818 98 945
819 97 904
820 97 241
821 96 487
822 96 981
823 95 961
824 95 636
825 95 736
826 94 570
827 93 1
828 93 594
829 92 175
830 91 656
831 91 539
832 91 794
833 91 261
834 90 966
835 90 470
836 90 756
837 90 767
838 90 307
839 90 622
840 89 564
841 89 864
842 88 714
843 87 519
844 87 626
845 87 490
846 87 402
847 87 596
848 87 556
849 86 88
850 86 422
851 86 796
852 86 646
853 85 377
854 85 915
855 84 249
856 84 566
857 84 854
858 84 752
859 84 746
860 83 47
861 83 396
862 83 28
863 83 273
864 82 11
865 82 4
866 82 390
867 82 226
868 82 392
869 82 599
870 82 284
871 81 840
872 81 269
873 80 101
874 80 17
875 80 276
876 80 269
877 80 897
878 79 449
879 79 977
880 78 41
881 78 920
882 77 210
883 77 496
884 77 931
885 77 801
886 76 570
887 76 300
888 76 793
889 76 269
890 75 744
891 75 726
892 75 387
893 74 845
894 74 803
895 74 723
896 73 134
897 72 971
898 72 582
899 72 489
900 71 936
901 71 337
902 71 923
903 71 679
904 70 205
905 70 949
906 69 537
907 69 814
908 68 469
909 68 347
910 67 738
911 67 201
912 67 105
913 67 417
914 67 991
915 66 162
916 66 475
917 66 305
918 65 268
919 65 602
920 64 695
921 64 355
922 64 274
923 64 5
924 64 172
925 63 890
926 62 199
927 62 719
928 62 760
929 62 90
930 61 188
931 61 340
932 60 448
933 60 643
934 60 836
935 59 732
936 59 853
937 59 34
938 59 217
939 58 164
940 58 29
941 57 615
942 57 588
943 57 162
944 57 426
945 57 842
946 56 634
947 56 596
948 56 538
949 55 969
950 55 16
951 55 75
952 55 64
953 55 235
954 54 96
955 54 153
956 54 731
957 54 846
958 53 761
959 53 645
960 53 268
961 53 416
962 53 492
963 52 107
964 52 568
965 51 224
966 51 10
967 51 801
968 51 976
969 50 253
970 50 71
971 50 874
972 50 42
973 50 85
974 50 861
975 50 181
976 49 379
977 48 782
978 48 916
979 48 829
980 48 666
981 48 8
982 48 336
983 47 340
984 45 823
985 45 398
986 44 709
987 44 727
988 43 551
989 43 879
990 43 293
991 42 899
992 42 954
993 42 46
994 42 219
995 42 190
996 41 910
997 41 930
998 41 480
999 40 834
1000 40 4
